Route #1: 36 69 71 60 70 20 37 27
Route #2: 43 41 42 64 22 61
Route #3: 25 55 31 10 58
Route #4: 38 65 66 59
Route #5: 49 24 18 50 32
Route #6: 29 5 15 57 13 54 19
Route #7: 74 21 47 48 30
Route #8: 11 14 53 35
Route #9: 40 9 39 72 12
Route #10: 68 6 3 44 17 26
Route #11: 33 62 28 2
Route #12: 7 8 46 52 45
Route #13: 75 4 34 67
Route #14: 51 16 63 23 56 1 73
Cost 1046